c pcminimize - minimizing a CNF with respect to propagation completeness by iterative removing of absorbed clauses.
c Petr Kucera, 2016-2021
c Version 2.7, revision 59, git hash 4910a71, date 2024-07-16 20:17:42 +0200
p cnf 128 145
31 -118 0
-31 -120 0
121 -123 0
-1 0
-2 0
3 0
4 0
-5 0
-6 0
7 0
-8 0
-9 0
10 0
-11 0
12 0
-13 0
-14 0
-15 0
-16 0
17 0
18 0
-19 0
20 0
-21 0
-23 0
-24 0
-28 0
-29 0
-30 0
-32 0
-33 0
-34 0
-35 0
36 0
-37 0
-38 0
-39 0
-40 0
41 0
-43 0
-46 0
-47 0
-48 0
-50 0
-51 0
54 0
57 0
-58 0
-59 0
-60 0
-62 0
-63 0
-64 0
-65 0
-66 0
68 0
-70 0
-71 0
-72 0
-73 0
-74 0
75 0
-76 0
-77 0
-78 0
-79 0
-80 0
81 0
-82 0
-83 0
-84 0
-85 0
-86 0
87 0
-89 0
-90 0
91 0
-92 0
-93 0
-94 0
-95 0
-97 0
-98 0
100 0
101 0
-102 0
103 0
104 0
-105 0
106 0
-107 0
-108 0
-109 0
-110 0
111 0
-112 0
-113 0
-114 0
115 0
-116 0
-127 128 0
-126 127 0
96 119 0
-49 119 0
-67 119 0
88 119 0
-56 119 0
52 119 0
45 119 0
-27 119 0
-122 123 0
53 119 0
99 117 0
-52 117 0
-96 117 0
26 119 0
-44 119 0
-117 118 0
-25 117 0
-69 119 0
-61 117 0
55 119 0
-88 117 0
25 119 0
27 117 0
42 117 0
22 117 0
-22 119 0
-42 119 0
-26 117 0
61 119 0
69 117 0
44 117 0
-45 117 0
49 117 0
-53 117 0
-55 117 0
56 117 0
-119 120 0
-99 119 0
23 122 0
-124 126 0
67 117 0
-123 124 0
90 125 0
